\ Model FlowOPT
\ LP format - for model browsing. Use MPS format to capture full model detail.
Maximize
  2.030701403384216 z[0,1] + 0.7939864743591053 z[1,1]
   + 1.257780357377033 z[2,1] + 2.112541636591924 z[3,1]
   + 0.5092284095167801 z[4,1] + 0.5121122899625133 z[5,1]
   + 0.8671780178692079 z[6,1] + 1.070915339651844 z[7,1]
   + 0.5027244576878653 z[8,1] + 2.333353898875168 z[10,1]
   + 3.229105034646512 z[11,1] + 2.605259467097588 z[12,1]
   + 1.075853869438501 z[13,1] + 0.6289720738305052 z[14,1]
   + 1.122239288490693 z[15,1] + 0.8750065421777493 z[16,1]
   + 0.6630336088502694 z[17,1] + 1.062575753626812 z[18,1]
   + 0.9995510409265533 z[19,1] + 0.6347364689726747 z[20,1]
   + 0.6166384028656239 z[21,1] + 1.072326431750489 z[22,1]
   + 0.836717109756728 z[23,1] + 3.202123597099824 z[24,1]
   + 1.613590038814292 z[25,1] + 0.6698043195106413 z[26,1]
   + 0.7139911491731092 z[27,1] + 2.133887761233956 z[28,1]
   + 0.6302857760043999 z[29,1] + 0.7883671529750452 z[30,1]
   + 1.9891402821145 z[31,1] + 0.3407164545095374 z[32,1]
   + 1.090707326385045 z[33,1] + 0.6803014041666733 z[34,1]
   + 2.85555933310928 z[35,1] + 0.7513527409556746 z[36,1]
   + 0.902771322631188 z[37,1] + 1.044038426660664 z[38,1]
   + 1.818158038508576 z[39,1] + 3.640603196272052 z[40,1]
   + 2.00142015244242 z[41,1] + 3.226790617718276 z[42,1]
   + 0.7357742865710734 z[43,1] + 1.98928302349272 z[44,1]
   + 0.7936187003925373 z[45,1] + 0.921388447748608 z[46,1]
   + 0.7707182792111428 z[47,1] + 0.8904622639515305 z[48,1]
   + 1.169856187232519 z[49,1] + 0.8818170324216053 z[50,1]
   + 2.479166852387868 z[51,1] + 0.9537866756843971 z[52,1]
   + 3.324392838235392 z[53,1] + 0.732210543691156 z[54,1]
   + 0.6928027494094973 z[55,1] + 0.8527405844791348 z[56,1]
   + 0.5854781410864919 z[57,1] + 0.8400613006175639 z[58,1]
   + 1.093333807495908 z[59,1] + 0.2899623160675227 z[60,1]
   + 0.8088896766863907 z[61,1] + 0.519638841587028 z[62,1]
   + 0.7857207696270972 z[63,1] + 2.327832571119056 z[64,1]
   + 0.574525648294292 z[65,1] + 1.889717971086412 z[66,1]
   + 0.9420036362864039 z[67,1] + 2.080234490370672 z[68,1]
   + 2.011510420688636 z[69,1] + 3.278295982544852 z[70,1]
   + 1.12765457665168 z[71,1] + 1.244628692201751 z[72,1]
   + 0.7114658081740985 z[73,1] + 2.99755758629022 z[74,1]
   + 0.8312681281221788 z[75,1] + 0.469628005925924 z[76,1]
   + 0.6929672321260001 z[77,1] + 0.731801380155528 z[78,1]
   + 0.828628758542216 z[79,1] + 3.218693538306268 z[80,1]
   + 1.056577982336091 z[81,1] + 0.8533738968778679 z[82,1]
   + 0.625363770745804 z[83,1] + 1.083709303780941 z[84,1]
   + 0.8139557331665386 z[85,1] + 0.9668504965004598 z[86,1]
   + 0.9041521509803239 z[87,1] + 0.9056802517729068 z[88,1]
   + 0.8159878110660239 z[89,1] + 0.8822549295979598 z[90,1]
   + 1.058843167823876 z[91,1] + 0.6224831377644533 z[92,1]
   + 1.264294960930496 z[93,1] + 2.123272401014432 z[94,1]
   + 0.7299898548987227 z[95,1] + 0.9032777240950118 z[96,1]
   + 0.9932486174867733 z[97,1] + 0.8828022626291347 z[98,1]
   + 0.9595936030561747 z[99,1]
Subject To
 R0: p[1] = 1
 R1: - w[1,1] + zeta[0,1] <= 0
 R2: - w[1,0] + zeta[1,1] <= 0
 R3: - w[1,0] + zeta[2,1] <= 0
 R4: - w[1,0] + zeta[3,1] <= 0
 R5: - w[1,0] + zeta[4,1] <= 0
 R6: - w[1,0] + zeta[5,1] <= 0
 R7: - w[1,1] + zeta[6,1] <= 0
 R8: - w[1,0] + zeta[7,1] <= 0
 R9: - w[1,0] + zeta[8,1] <= 0
 R10: - w[1,1] + zeta[9,1] <= 0
 R11: - w[1,0] + zeta[10,1] <= 0
 R12: - w[1,1] + zeta[11,1] <= 0
 R13: - w[1,1] + zeta[12,1] <= 0
 R14: - w[1,1] + zeta[13,1] <= 0
 R15: - w[1,1] + zeta[14,1] <= 0
 R16: - w[1,1] + zeta[15,1] <= 0
 R17: - w[1,1] + zeta[16,1] <= 0
 R18: - w[1,0] + zeta[17,1] <= 0
 R19: - w[1,1] + zeta[18,1] <= 0
 R20: - w[1,0] + zeta[19,1] <= 0
 R21: - w[1,0] + zeta[20,1] <= 0
 R22: - w[1,1] + zeta[21,1] <= 0
 R23: - w[1,0] + zeta[22,1] <= 0
 R24: - w[1,0] + zeta[23,1] <= 0
 R25: - w[1,0] + zeta[24,1] <= 0
 R26: - w[1,1] + zeta[25,1] <= 0
 R27: - w[1,0] + zeta[26,1] <= 0
 R28: - w[1,0] + zeta[27,1] <= 0
 R29: - w[1,1] + zeta[28,1] <= 0
 R30: - w[1,0] + zeta[29,1] <= 0
 R31: - w[1,1] + zeta[30,1] <= 0
 R32: - w[1,0] + zeta[31,1] <= 0
 R33: - w[1,0] + zeta[32,1] <= 0
 R34: - w[1,1] + zeta[33,1] <= 0
 R35: - w[1,0] + zeta[34,1] <= 0
 R36: - w[1,1] + zeta[35,1] <= 0
 R37: - w[1,1] + zeta[36,1] <= 0
 R38: - w[1,1] + zeta[37,1] <= 0
 R39: - w[1,1] + zeta[38,1] <= 0
 R40: - w[1,0] + zeta[39,1] <= 0
 R41: - w[1,0] + zeta[40,1] <= 0
 R42: - w[1,1] + zeta[41,1] <= 0
 R43: - w[1,1] + zeta[42,1] <= 0
 R44: - w[1,1] + zeta[43,1] <= 0
 R45: - w[1,1] + zeta[44,1] <= 0
 R46: - w[1,1] + zeta[45,1] <= 0
 R47: - w[1,1] + zeta[46,1] <= 0
 R48: - w[1,0] + zeta[47,1] <= 0
 R49: - w[1,0] + zeta[48,1] <= 0
 R50: - w[1,1] + zeta[49,1] <= 0
 R51: - w[1,1] + zeta[50,1] <= 0
 R52: - w[1,0] + zeta[51,1] <= 0
 R53: - w[1,0] + zeta[52,1] <= 0
 R54: - w[1,0] + zeta[53,1] <= 0
 R55: - w[1,0] + zeta[54,1] <= 0
 R56: - w[1,0] + zeta[55,1] <= 0
 R57: - w[1,0] + zeta[56,1] <= 0
 R58: - w[1,1] + zeta[57,1] <= 0
 R59: - w[1,0] + zeta[58,1] <= 0
 R60: - w[1,1] + zeta[59,1] <= 0
 R61: - w[1,0] + zeta[60,1] <= 0
 R62: - w[1,1] + zeta[61,1] <= 0
 R63: - w[1,0] + zeta[62,1] <= 0
 R64: - w[1,1] + zeta[63,1] <= 0
 R65: - w[1,0] + zeta[64,1] <= 0
 R66: - w[1,0] + zeta[65,1] <= 0
 R67: - w[1,1] + zeta[66,1] <= 0
 R68: - w[1,1] + zeta[67,1] <= 0
 R69: - w[1,1] + zeta[68,1] <= 0
 R70: - w[1,0] + zeta[69,1] <= 0
 R71: - w[1,0] + zeta[70,1] <= 0
 R72: - w[1,1] + zeta[71,1] <= 0
 R73: - w[1,1] + zeta[72,1] <= 0
 R74: - w[1,0] + zeta[73,1] <= 0
 R75: - w[1,0] + zeta[74,1] <= 0
 R76: - w[1,1] + zeta[75,1] <= 0
 R77: - w[1,1] + zeta[76,1] <= 0
 R78: - w[1,0] + zeta[77,1] <= 0
 R79: - w[1,1] + zeta[78,1] <= 0
 R80: - w[1,1] + zeta[79,1] <= 0
 R81: - w[1,1] + zeta[80,1] <= 0
 R82: - w[1,0] + zeta[81,1] <= 0
 R83: - w[1,0] + zeta[82,1] <= 0
 R84: - w[1,1] + zeta[83,1] <= 0
 R85: - w[1,1] + zeta[84,1] <= 0
 R86: - w[1,1] + zeta[85,1] <= 0
 R87: - w[1,1] + zeta[86,1] <= 0
 R88: - w[1,1] + zeta[87,1] <= 0
 R89: - w[1,0] + zeta[88,1] <= 0
 R90: - w[1,0] + zeta[89,1] <= 0
 R91: - w[1,1] + zeta[90,1] <= 0
 R92: - w[1,1] + zeta[91,1] <= 0
 R93: - w[1,1] + zeta[92,1] <= 0
 R94: - w[1,1] + zeta[93,1] <= 0
 R95: - w[1,1] + zeta[94,1] <= 0
 R96: - w[1,0] + zeta[95,1] <= 0
 R97: - w[1,0] + zeta[96,1] <= 0
 R98: - w[1,1] + zeta[97,1] <= 0
 R99: - w[1,0] + zeta[98,1] <= 0
 R100: - w[1,1] + zeta[99,1] <= 0
 R101: - p[1] + w[1,1] + w[1,0] = 0
 R102: zeta[0,1] - z[0,1] = 0
 R103: zeta[1,1] - z[1,1] = 0
 R104: zeta[2,1] - z[2,1] = 0
 R105: zeta[3,1] - z[3,1] = 0
 R106: zeta[4,1] - z[4,1] = 0
 R107: zeta[5,1] - z[5,1] = 0
 R108: zeta[6,1] - z[6,1] = 0
 R109: zeta[7,1] - z[7,1] = 0
 R110: zeta[8,1] - z[8,1] = 0
 R111: zeta[9,1] - z[9,1] = 0
 R112: zeta[10,1] - z[10,1] = 0
 R113: zeta[11,1] - z[11,1] = 0
 R114: zeta[12,1] - z[12,1] = 0
 R115: zeta[13,1] - z[13,1] = 0
 R116: zeta[14,1] - z[14,1] = 0
 R117: zeta[15,1] - z[15,1] = 0
 R118: zeta[16,1] - z[16,1] = 0
 R119: zeta[17,1] - z[17,1] = 0
 R120: zeta[18,1] - z[18,1] = 0
 R121: zeta[19,1] - z[19,1] = 0
 R122: zeta[20,1] - z[20,1] = 0
 R123: zeta[21,1] - z[21,1] = 0
 R124: zeta[22,1] - z[22,1] = 0
 R125: zeta[23,1] - z[23,1] = 0
 R126: zeta[24,1] - z[24,1] = 0
 R127: zeta[25,1] - z[25,1] = 0
 R128: zeta[26,1] - z[26,1] = 0
 R129: zeta[27,1] - z[27,1] = 0
 R130: zeta[28,1] - z[28,1] = 0
 R131: zeta[29,1] - z[29,1] = 0
 R132: zeta[30,1] - z[30,1] = 0
 R133: zeta[31,1] - z[31,1] = 0
 R134: zeta[32,1] - z[32,1] = 0
 R135: zeta[33,1] - z[33,1] = 0
 R136: zeta[34,1] - z[34,1] = 0
 R137: zeta[35,1] - z[35,1] = 0
 R138: zeta[36,1] - z[36,1] = 0
 R139: zeta[37,1] - z[37,1] = 0
 R140: zeta[38,1] - z[38,1] = 0
 R141: zeta[39,1] - z[39,1] = 0
 R142: zeta[40,1] - z[40,1] = 0
 R143: zeta[41,1] - z[41,1] = 0
 R144: zeta[42,1] - z[42,1] = 0
 R145: zeta[43,1] - z[43,1] = 0
 R146: zeta[44,1] - z[44,1] = 0
 R147: zeta[45,1] - z[45,1] = 0
 R148: zeta[46,1] - z[46,1] = 0
 R149: zeta[47,1] - z[47,1] = 0
 R150: zeta[48,1] - z[48,1] = 0
 R151: zeta[49,1] - z[49,1] = 0
 R152: zeta[50,1] - z[50,1] = 0
 R153: zeta[51,1] - z[51,1] = 0
 R154: zeta[52,1] - z[52,1] = 0
 R155: zeta[53,1] - z[53,1] = 0
 R156: zeta[54,1] - z[54,1] = 0
 R157: zeta[55,1] - z[55,1] = 0
 R158: zeta[56,1] - z[56,1] = 0
 R159: zeta[57,1] - z[57,1] = 0
 R160: zeta[58,1] - z[58,1] = 0
 R161: zeta[59,1] - z[59,1] = 0
 R162: zeta[60,1] - z[60,1] = 0
 R163: zeta[61,1] - z[61,1] = 0
 R164: zeta[62,1] - z[62,1] = 0
 R165: zeta[63,1] - z[63,1] = 0
 R166: zeta[64,1] - z[64,1] = 0
 R167: zeta[65,1] - z[65,1] = 0
 R168: zeta[66,1] - z[66,1] = 0
 R169: zeta[67,1] - z[67,1] = 0
 R170: zeta[68,1] - z[68,1] = 0
 R171: zeta[69,1] - z[69,1] = 0
 R172: zeta[70,1] - z[70,1] = 0
 R173: zeta[71,1] - z[71,1] = 0
 R174: zeta[72,1] - z[72,1] = 0
 R175: zeta[73,1] - z[73,1] = 0
 R176: zeta[74,1] - z[74,1] = 0
 R177: zeta[75,1] - z[75,1] = 0
 R178: zeta[76,1] - z[76,1] = 0
 R179: zeta[77,1] - z[77,1] = 0
 R180: zeta[78,1] - z[78,1] = 0
 R181: zeta[79,1] - z[79,1] = 0
 R182: zeta[80,1] - z[80,1] = 0
 R183: zeta[81,1] - z[81,1] = 0
 R184: zeta[82,1] - z[82,1] = 0
 R185: zeta[83,1] - z[83,1] = 0
 R186: zeta[84,1] - z[84,1] = 0
 R187: zeta[85,1] - z[85,1] = 0
 R188: zeta[86,1] - z[86,1] = 0
 R189: zeta[87,1] - z[87,1] = 0
 R190: zeta[88,1] - z[88,1] = 0
 R191: zeta[89,1] - z[89,1] = 0
 R192: zeta[90,1] - z[90,1] = 0
 R193: zeta[91,1] - z[91,1] = 0
 R194: zeta[92,1] - z[92,1] = 0
 R195: zeta[93,1] - z[93,1] = 0
 R196: zeta[94,1] - z[94,1] = 0
 R197: zeta[95,1] - z[95,1] = 0
 R198: zeta[96,1] - z[96,1] = 0
 R199: zeta[97,1] - z[97,1] = 0
 R200: zeta[98,1] - z[98,1] = 0
 R201: zeta[99,1] - z[99,1] = 0
Bounds
Binaries
 p[1]
End
